VRPTWMS/instances/mip/freight/5/N5-C_DV10-C_SV50_F12_1_No_1.lp
\ N5-C_DV10-C_SV50_F12_1

Minimize
  19.31 x_d0_c1 + 19.31 z_d0_c1 + 21.63 x_d0_c2 + 21.63 z_d0_c2 + 30.15 x_d0_c3 + 30.15 z_d0_c3 + 4.47 x_d0_c4 + 4.47 z_d0_c4 + 6.32 x_d0_c5 + 6.32 z_d0_c5 + 39.05 x_c1_c2 + 39.05 x_c2_c1 + 39.05 z_c1_c2 + 39.05 z_c2_c1 + 42.54 x_c1_c3 + 42.54 x_c3_c1 + 42.54 z_c1_c3 + 42.54 z_c3_c1 + 19.42 x_c1_c4 + 19.42 x_c4_c1 + 19.42 z_c1_c4 + 19.42 z_c4_c1 + 24.52 x_c1_c5 + 24.52 x_c5_c1 + 24.52 z_c1_c5 + 24.52 z_c5_c1 + 15.0 x_c2_c3 + 15.0 x_c3_c2 + 15.0 z_c2_c3 + 15.0 z_c3_c2 + 19.8 x_c2_c4 + 19.8 x_c4_c2 + 19.8 z_c2_c4 + 19.8 z_c4_c2 + 20.88 x_c2_c5 + 20.88 x_c5_c2 + 20.88 z_c2_c5 + 20.88 z_c5_c2 + 26.48 x_c3_c4 + 26.48 x_c4_c3 + 26.48 z_c3_c4 + 26.48 z_c4_c3 + 32.14 x_c3_c5 + 32.14 x_c5_c3 + 32.14 z_c3_c5 + 32.14 z_c5_c3 + 10.0 x_c4_c5 + 10.0 x_c5_c4 + 10.0 z_c4_c5 + 10.0 z_c5_c4 + 19.31 x_c1_dN + 19.31 z_c1_dN + 21.63 x_c2_dN + 21.63 z_c2_dN + 30.15 x_c3_dN + 30.15 z_c3_dN + 4.47 x_c4_dN + 4.47 z_c4_dN + 6.32 x_c5_dN + 6.32 z_c5_dN + 1000.0 x_d0_c1 + 1000.0 z_d0_c1 + 1000.0 x_d0_c2 + 1000.0 z_d0_c2 + 1000.0 x_d0_c3 + 1000.0 z_d0_c3 + 1000.0 x_d0_c4 + 1000.0 z_d0_c4 + 1000.0 x_d0_c5 + 1000.0 z_d0_c5
Subject To
  Successor_DV_c1: x_c1_c2 + x_c1_c3 + x_c1_c4 + x_c1_c5 + x_c1_dN = 1
  Successor_DV_c2: x_c2_c1 + x_c2_c3 + x_c2_c4 + x_c2_c5 + x_c2_dN = 1
  Successor_DV_c3: x_c3_c1 + x_c3_c2 + x_c3_c4 + x_c3_c5 + x_c3_dN = 1
  Successor_DV_c4: x_c4_c1 + x_c4_c2 + x_c4_c3 + x_c4_c5 + x_c4_dN = 1
  Successor_DV_c5: x_c5_c1 + x_c5_c2 + x_c5_c3 + x_c5_c4 + x_c5_dN = 1
  Successor_SV_c1: z_c1_c2 + z_c1_c3 + z_c1_c4 + z_c1_c5 + z_c1_dN <= 1
  Successor_SV_c2: z_c2_c1 + z_c2_c3 + z_c2_c4 + z_c2_c5 + z_c2_dN <= 1
  Successor_SV_c3: z_c3_c1 + z_c3_c2 + z_c3_c4 + z_c3_c5 + z_c3_dN <= 1
  Successor_SV_c4: z_c4_c1 + z_c4_c2 + z_c4_c3 + z_c4_c5 + z_c4_dN <= 1
  Successor_SV_c5: z_c5_c1 + z_c5_c2 + z_c5_c3 + z_c5_c4 + z_c5_dN <= 1
  Flow_DV_c1: x_d0_c1 + x_c2_c1 + x_c3_c1 + x_c4_c1 + x_c5_c1 - x_c1_dN - x_c1_c2 - x_c1_c3 - x_c1_c4 - x_c1_c5 = 0
  Flow_DV_c2: x_d0_c2 + x_c1_c2 + x_c3_c2 + x_c4_c2 + x_c5_c2 - x_c2_dN - x_c2_c1 - x_c2_c3 - x_c2_c4 - x_c2_c5 = 0
  Flow_DV_c3: x_d0_c3 + x_c1_c3 + x_c2_c3 + x_c4_c3 + x_c5_c3 - x_c3_dN - x_c3_c1 - x_c3_c2 - x_c3_c4 - x_c3_c5 = 0
  Flow_DV_c4: x_d0_c4 + x_c1_c4 + x_c2_c4 + x_c3_c4 + x_c5_c4 - x_c4_dN - x_c4_c1 - x_c4_c2 - x_c4_c3 - x_c4_c5 = 0
  Flow_DV_c5: x_d0_c5 + x_c1_c5 + x_c2_c5 + x_c3_c5 + x_c4_c5 - x_c5_dN - x_c5_c1 - x_c5_c2 - x_c5_c3 - x_c5_c4 = 0
  Flow_SV_c1: z_d0_c1 + z_c2_c1 + z_c3_c1 + z_c4_c1 + z_c5_c1 - z_c1_dN - z_c1_c2 - z_c1_c3 - z_c1_c4 - z_c1_c5 = 0
  Flow_SV_c2: z_d0_c2 + z_c1_c2 + z_c3_c2 + z_c4_c2 + z_c5_c2 - z_c2_dN - z_c2_c1 - z_c2_c3 - z_c2_c4 - z_c2_c5 = 0
  Flow_SV_c3: z_d0_c3 + z_c1_c3 + z_c2_c3 + z_c4_c3 + z_c5_c3 - z_c3_dN - z_c3_c1 - z_c3_c2 - z_c3_c4 - z_c3_c5 = 0
  Flow_SV_c4: z_d0_c4 + z_c1_c4 + z_c2_c4 + z_c3_c4 + z_c5_c4 - z_c4_dN - z_c4_c1 - z_c4_c2 - z_c4_c3 - z_c4_c5 = 0
  Flow_SV_c5: z_d0_c5 + z_c1_c5 + z_c2_c5 + z_c3_c5 + z_c4_c5 - z_c5_dN - z_c5_c1 - z_c5_c2 - z_c5_c3 - z_c5_c4 = 0
  travelDV_d0_c1: tauD_d0 - tauD_c1 + 104.8275 x_d0_c1 <= 100.0
  travelDV_d0_c2: tauD_d0 - tauD_c2 + 105.4075 x_d0_c2 <= 100.0
  travelDV_d0_c3: tauD_d0 - tauD_c3 + 107.5375 x_d0_c3 <= 100.0
  travelDV_d0_c4: tauD_d0 - tauD_c4 + 101.1175 x_d0_c4 <= 100.0
  travelDV_d0_c5: tauD_d0 - tauD_c5 + 101.58 x_d0_c5 <= 100.0
  travelDV_c1_c2: tauD_c1 - tauD_c2 + 117.7625 x_c1_c2 + 8.0 p_1 <= 100.0
  travelDV_c1_c3: tauD_c1 - tauD_c3 + 118.635 x_c1_c3 + 8.0 p_1 <= 100.0
  travelDV_c1_c4: tauD_c1 - tauD_c4 + 112.855 x_c1_c4 + 8.0 p_1 <= 100.0
  travelDV_c1_c5: tauD_c1 - tauD_c5 + 114.13 x_c1_c5 + 8.0 p_1 <= 100.0
  travelDV_c2_c1: tauD_c2 - tauD_c1 + 112.7625 x_c2_c1 + 8.0 p_2 <= 100.0
  travelDV_c2_c3: tauD_c2 - tauD_c3 + 106.75 x_c2_c3 + 8.0 p_2 <= 100.0
  travelDV_c2_c4: tauD_c2 - tauD_c4 + 107.95 x_c2_c4 + 8.0 p_2 <= 100.0
  travelDV_c2_c5: tauD_c2 - tauD_c5 + 108.22 x_c2_c5 + 8.0 p_2 <= 100.0
  travelDV_c3_c1: tauD_c3 - tauD_c1 + 115.635 x_c3_c1 + 8.0 p_3 <= 100.0
  travelDV_c3_c2: tauD_c3 - tauD_c2 + 108.75 x_c3_c2 + 8.0 p_3 <= 100.0
  travelDV_c3_c4: tauD_c3 - tauD_c4 + 111.62 x_c3_c4 + 8.0 p_3 <= 100.0
  travelDV_c3_c5: tauD_c3 - tauD_c5 + 113.035 x_c3_c5 + 8.0 p_3 <= 100.0
  travelDV_c4_c1: tauD_c4 - tauD_c1 + 108.855 x_c4_c1 + 8.0 p_4 <= 100.0
  travelDV_c4_c2: tauD_c4 - tauD_c2 + 108.95 x_c4_c2 + 8.0 p_4 <= 100.0
  travelDV_c4_c3: tauD_c4 - tauD_c3 + 110.62 x_c4_c3 + 8.0 p_4 <= 100.0
  travelDV_c4_c5: tauD_c4 - tauD_c5 + 106.5 x_c4_c5 + 8.0 p_4 <= 100.0
  travelDV_c5_c1: tauD_c5 - tauD_c1 + 109.13 x_c5_c1 + 8.0 p_5 <= 100.0
  travelDV_c5_c2: tauD_c5 - tauD_c2 + 108.22 x_c5_c2 + 8.0 p_5 <= 100.0
  travelDV_c5_c3: tauD_c5 - tauD_c3 + 111.035 x_c5_c3 + 8.0 p_5 <= 100.0
  travelDV_c5_c4: tauD_c5 - tauD_c4 + 105.5 x_c5_c4 + 8.0 p_5 <= 100.0
  TravelSV_d0_c1: tauS_d0 - tauS_c1 + 100.0 z_d0_c1 <= 95.1725
  TravelSV_d0_c2: tauS_d0 - tauS_c2 + 100.0 z_d0_c2 <= 94.5925
  TravelSV_d0_c3: tauS_d0 - tauS_c3 + 100.0 z_d0_c3 <= 92.4625
  TravelSV_d0_c4: tauS_d0 - tauS_c4 + 100.0 z_d0_c4 <= 98.8825
  TravelSV_d0_c5: tauS_d0 - tauS_c5 + 100.0 z_d0_c5 <= 98.42
  TravelSV_d0_dN: tauS_d0 - tauS_dN + 100.0 z_d0_dN <= 100.0
  TravelSV_c1_c2: tauS_c1 - tauS_c2 + 100.0 z_c1_c2 <= 82.2375
  TravelSV_c1_c3: tauS_c1 - tauS_c3 + 100.0 z_c1_c3 <= 81.365
  TravelSV_c1_c4: tauS_c1 - tauS_c4 + 100.0 z_c1_c4 <= 87.145
  TravelSV_c1_c5: tauS_c1 - tauS_c5 + 100.0 z_c1_c5 <= 85.87
  TravelSV_c1_dN: tauS_c1 - tauS_dN + 100.0 z_c1_dN <= 87.1725
  TravelSV_c2_c1: tauS_c2 - tauS_c1 + 100.0 z_c2_c1 <= 82.2375
  TravelSV_c2_c3: tauS_c2 - tauS_c3 + 100.0 z_c2_c3 <= 88.25
  TravelSV_c2_c4: tauS_c2 - tauS_c4 + 100.0 z_c2_c4 <= 87.05
  TravelSV_c2_c5: tauS_c2 - tauS_c5 + 100.0 z_c2_c5 <= 86.78
  TravelSV_c2_dN: tauS_c2 - tauS_dN + 100.0 z_c2_dN <= 86.5925
  TravelSV_c3_c1: tauS_c3 - tauS_c1 + 100.0 z_c3_c1 <= 81.365
  TravelSV_c3_c2: tauS_c3 - tauS_c2 + 100.0 z_c3_c2 <= 88.25
  TravelSV_c3_c4: tauS_c3 - tauS_c4 + 100.0 z_c3_c4 <= 85.38
  TravelSV_c3_c5: tauS_c3 - tauS_c5 + 100.0 z_c3_c5 <= 83.965
  TravelSV_c3_dN: tauS_c3 - tauS_dN + 100.0 z_c3_dN <= 84.4625
  TravelSV_c4_c1: tauS_c4 - tauS_c1 + 100.0 z_c4_c1 <= 87.145
  TravelSV_c4_c2: tauS_c4 - tauS_c2 + 100.0 z_c4_c2 <= 87.05
  TravelSV_c4_c3: tauS_c4 - tauS_c3 + 100.0 z_c4_c3 <= 85.38
  TravelSV_c4_c5: tauS_c4 - tauS_c5 + 100.0 z_c4_c5 <= 89.5
  TravelSV_c4_dN: tauS_c4 - tauS_dN + 100.0 z_c4_dN <= 90.8825
  TravelSV_c5_c1: tauS_c5 - tauS_c1 + 100.0 z_c5_c1 <= 85.87
  TravelSV_c5_c2: tauS_c5 - tauS_c2 + 100.0 z_c5_c2 <= 86.78
  TravelSV_c5_c3: tauS_c5 - tauS_c3 + 100.0 z_c5_c3 <= 83.965
  TravelSV_c5_c4: tauS_c5 - tauS_c4 + 100.0 z_c5_c4 <= 89.5
  TravelSV_c5_dN: tauS_c5 - tauS_dN + 100.0 z_c5_dN <= 90.42
  time_window_c1_e: tauD_c1 + 8.0 o_1 >= 0.0
  time_window_c1_l: tauD_c1 + 8.0 o_1 <= 100.0
  time_window_c2_e: tauD_c2 + 8.0 o_2 >= 5.0
  time_window_c2_l: tauD_c2 + 8.0 o_2 <= 20.0
  time_window_c3_e: tauD_c3 + 8.0 o_3 >= 45.0
  time_window_c3_l: tauD_c3 + 8.0 o_3 <= 60.0
  time_window_c4_e: tauD_c4 + 8.0 o_4 >= 65.0
  time_window_c4_l: tauD_c4 + 8.0 o_4 <= 80.0
  time_window_c5_e: tauD_c5 + 8.0 o_5 >= 5.0
  time_window_c5_l: tauD_c5 + 8.0 o_5 <= 20.0
  SyncA_c1_c2_c2: 8.0 o_1 + 100.0 x_c1_c2 - tauD_c2 - 9.7625 z_c1_c2 + [ tauS_c2 * z_c1_c2 ] <= 90.2375
  SyncA_c1_c2_c3: 8.0 o_1 + 100.0 x_c1_c2 - tauD_c2 - 10.635 z_c1_c3 + [ tauS_c3 * z_c1_c3 ] <= 90.2375
  SyncA_c1_c2_c4: 8.0 o_1 + 100.0 x_c1_c2 - tauD_c2 - 4.855 z_c1_c4 + [ tauS_c4 * z_c1_c4 ] <= 90.2375
  SyncA_c1_c2_c5: 8.0 o_1 + 100.0 x_c1_c2 - tauD_c2 - 6.13 z_c1_c5 + [ tauS_c5 * z_c1_c5 ] <= 90.2375
  SyncA_c1_c2_dN: 8.0 o_1 + 100.0 x_c1_c2 - tauD_c2 - 4.8275 z_c1_dN + [ tauS_dN * z_c1_dN ] <= 90.2375
  SyncA_c1_c3_c2: 8.0 o_1 + 100.0 x_c1_c3 - tauD_c3 - 9.7625 z_c1_c2 + [ tauS_c2 * z_c1_c2 ] <= 89.365
  SyncA_c1_c3_c3: 8.0 o_1 + 100.0 x_c1_c3 - tauD_c3 - 10.635 z_c1_c3 + [ tauS_c3 * z_c1_c3 ] <= 89.365
  SyncA_c1_c3_c4: 8.0 o_1 + 100.0 x_c1_c3 - tauD_c3 - 4.855 z_c1_c4 + [ tauS_c4 * z_c1_c4 ] <= 89.365
  SyncA_c1_c3_c5: 8.0 o_1 + 100.0 x_c1_c3 - tauD_c3 - 6.13 z_c1_c5 + [ tauS_c5 * z_c1_c5 ] <= 89.365
  SyncA_c1_c3_dN: 8.0 o_1 + 100.0 x_c1_c3 - tauD_c3 - 4.8275 z_c1_dN + [ tauS_dN * z_c1_dN ] <= 89.365
  SyncA_c1_c4_c2: 8.0 o_1 + 100.0 x_c1_c4 - tauD_c4 - 9.7625 z_c1_c2 + [ tauS_c2 * z_c1_c2 ] <= 95.145
  SyncA_c1_c4_c3: 8.0 o_1 + 100.0 x_c1_c4 - tauD_c4 - 10.635 z_c1_c3 + [ tauS_c3 * z_c1_c3 ] <= 95.145
  SyncA_c1_c4_c4: 8.0 o_1 + 100.0 x_c1_c4 - tauD_c4 - 4.855 z_c1_c4 + [ tauS_c4 * z_c1_c4 ] <= 95.145
  SyncA_c1_c4_c5: 8.0 o_1 + 100.0 x_c1_c4 - tauD_c4 - 6.13 z_c1_c5 + [ tauS_c5 * z_c1_c5 ] <= 95.145
  SyncA_c1_c4_dN: 8.0 o_1 + 100.0 x_c1_c4 - tauD_c4 - 4.8275 z_c1_dN + [ tauS_dN * z_c1_dN ] <= 95.145
  SyncA_c1_c5_c2: 8.0 o_1 + 100.0 x_c1_c5 - tauD_c5 - 9.7625 z_c1_c2 + [ tauS_c2 * z_c1_c2 ] <= 93.87
  SyncA_c1_c5_c3: 8.0 o_1 + 100.0 x_c1_c5 - tauD_c5 - 10.635 z_c1_c3 + [ tauS_c3 * z_c1_c3 ] <= 93.87
  SyncA_c1_c5_c4: 8.0 o_1 + 100.0 x_c1_c5 - tauD_c5 - 4.855 z_c1_c4 + [ tauS_c4 * z_c1_c4 ] <= 93.87
  SyncA_c1_c5_c5: 8.0 o_1 + 100.0 x_c1_c5 - tauD_c5 - 6.13 z_c1_c5 + [ tauS_c5 * z_c1_c5 ] <= 93.87
  SyncA_c1_c5_dN: 8.0 o_1 + 100.0 x_c1_c5 - tauD_c5 - 4.8275 z_c1_dN + [ tauS_dN * z_c1_dN ] <= 93.87
  SyncA_c1_dN_c2: 8.0 o_1 + 100.0 x_c1_dN - tauD_dN - 9.7625 z_c1_c2 + [ tauS_c2 * z_c1_c2 ] <= 95.1725
  SyncA_c1_dN_c3: 8.0 o_1 + 100.0 x_c1_dN - tauD_dN - 10.635 z_c1_c3 + [ tauS_c3 * z_c1_c3 ] <= 95.1725
  SyncA_c1_dN_c4: 8.0 o_1 + 100.0 x_c1_dN - tauD_dN - 4.855 z_c1_c4 + [ tauS_c4 * z_c1_c4 ] <= 95.1725
  SyncA_c1_dN_c5: 8.0 o_1 + 100.0 x_c1_dN - tauD_dN - 6.13 z_c1_c5 + [ tauS_c5 * z_c1_c5 ] <= 95.1725
  SyncA_c1_dN_dN: 8.0 o_1 + 100.0 x_c1_dN - tauD_dN - 4.8275 z_c1_dN + [ tauS_dN * z_c1_dN ] <= 95.1725
  SyncA_c2_c1_c1: 3.0 o_2 + 100.0 x_c2_c1 - tauD_c1 - 9.7625 z_c2_c1 + [ tauS_c1 * z_c2_c1 ] <= 90.2375
  SyncA_c2_c1_c3: 3.0 o_2 + 100.0 x_c2_c1 - tauD_c1 - 3.75 z_c2_c3 + [ tauS_c3 * z_c2_c3 ] <= 90.2375
  SyncA_c2_c1_c4: 3.0 o_2 + 100.0 x_c2_c1 - tauD_c1 - 4.95 z_c2_c4 + [ tauS_c4 * z_c2_c4 ] <= 90.2375
  SyncA_c2_c1_c5: 3.0 o_2 + 100.0 x_c2_c1 - tauD_c1 - 5.22 z_c2_c5 + [ tauS_c5 * z_c2_c5 ] <= 90.2375
  SyncA_c2_c1_dN: 3.0 o_2 + 100.0 x_c2_c1 - tauD_c1 - 5.4075 z_c2_dN + [ tauS_dN * z_c2_dN ] <= 90.2375
  SyncA_c2_c3_c1: 3.0 o_2 + 100.0 x_c2_c3 - tauD_c3 - 9.7625 z_c2_c1 + [ tauS_c1 * z_c2_c1 ] <= 96.25
  SyncA_c2_c3_c3: 3.0 o_2 + 100.0 x_c2_c3 - tauD_c3 - 3.75 z_c2_c3 + [ tauS_c3 * z_c2_c3 ] <= 96.25
  SyncA_c2_c3_c4: 3.0 o_2 + 100.0 x_c2_c3 - tauD_c3 - 4.95 z_c2_c4 + [ tauS_c4 * z_c2_c4 ] <= 96.25
  SyncA_c2_c3_c5: 3.0 o_2 + 100.0 x_c2_c3 - tauD_c3 - 5.22 z_c2_c5 + [ tauS_c5 * z_c2_c5 ] <= 96.25
  SyncA_c2_c3_dN: 3.0 o_2 + 100.0 x_c2_c3 - tauD_c3 - 5.4075 z_c2_dN + [ tauS_dN * z_c2_dN ] <= 96.25
  SyncA_c2_c4_c1: 3.0 o_2 + 100.0 x_c2_c4 - tauD_c4 - 9.7625 z_c2_c1 + [ tauS_c1 * z_c2_c1 ] <= 95.05
  SyncA_c2_c4_c3: 3.0 o_2 + 100.0 x_c2_c4 - tauD_c4 - 3.75 z_c2_c3 + [ tauS_c3 * z_c2_c3 ] <= 95.05
  SyncA_c2_c4_c4: 3.0 o_2 + 100.0 x_c2_c4 - tauD_c4 - 4.95 z_c2_c4 + [ tauS_c4 * z_c2_c4 ] <= 95.05
  SyncA_c2_c4_c5: 3.0 o_2 + 100.0 x_c2_c4 - tauD_c4 - 5.22 z_c2_c5 + [ tauS_c5 * z_c2_c5 ] <= 95.05
  SyncA_c2_c4_dN: 3.0 o_2 + 100.0 x_c2_c4 - tauD_c4 - 5.4075 z_c2_dN + [ tauS_dN * z_c2_dN ] <= 95.05
  SyncA_c2_c5_c1: 3.0 o_2 + 100.0 x_c2_c5 - tauD_c5 - 9.7625 z_c2_c1 + [ tauS_c1 * z_c2_c1 ] <= 94.78
  SyncA_c2_c5_c3: 3.0 o_2 + 100.0 x_c2_c5 - tauD_c5 - 3.75 z_c2_c3 + [ tauS_c3 * z_c2_c3 ] <= 94.78
  SyncA_c2_c5_c4: 3.0 o_2 + 100.0 x_c2_c5 - tauD_c5 - 4.95 z_c2_c4 + [ tauS_c4 * z_c2_c4 ] <= 94.78
  SyncA_c2_c5_c5: 3.0 o_2 + 100.0 x_c2_c5 - tauD_c5 - 5.22 z_c2_c5 + [ tauS_c5 * z_c2_c5 ] <= 94.78
  SyncA_c2_c5_dN: 3.0 o_2 + 100.0 x_c2_c5 - tauD_c5 - 5.4075 z_c2_dN + [ tauS_dN * z_c2_dN ] <= 94.78
  SyncA_c2_dN_c1: 3.0 o_2 + 100.0 x_c2_dN - tauD_dN - 9.7625 z_c2_c1 + [ tauS_c1 * z_c2_c1 ] <= 94.5925
  SyncA_c2_dN_c3: 3.0 o_2 + 100.0 x_c2_dN - tauD_dN - 3.75 z_c2_c3 + [ tauS_c3 * z_c2_c3 ] <= 94.5925
  SyncA_c2_dN_c4: 3.0 o_2 + 100.0 x_c2_dN - tauD_dN - 4.95 z_c2_c4 + [ tauS_c4 * z_c2_c4 ] <= 94.5925
  SyncA_c2_dN_c5: 3.0 o_2 + 100.0 x_c2_dN - tauD_dN - 5.22 z_c2_c5 + [ tauS_c5 * z_c2_c5 ] <= 94.5925
  SyncA_c2_dN_dN: 3.0 o_2 + 100.0 x_c2_dN - tauD_dN - 5.4075 z_c2_dN + [ tauS_dN * z_c2_dN ] <= 94.5925
  SyncA_c3_c1_c1: 5.0 o_3 + 100.0 x_c3_c1 - tauD_c1 - 10.635 z_c3_c1 + [ tauS_c1 * z_c3_c1 ] <= 89.365
  SyncA_c3_c1_c2: 5.0 o_3 + 100.0 x_c3_c1 - tauD_c1 - 3.75 z_c3_c2 + [ tauS_c2 * z_c3_c2 ] <= 89.365
  SyncA_c3_c1_c4: 5.0 o_3 + 100.0 x_c3_c1 - tauD_c1 - 6.62 z_c3_c4 + [ tauS_c4 * z_c3_c4 ] <= 89.365
  SyncA_c3_c1_c5: 5.0 o_3 + 100.0 x_c3_c1 - tauD_c1 - 8.035 z_c3_c5 + [ tauS_c5 * z_c3_c5 ] <= 89.365
  SyncA_c3_c1_dN: 5.0 o_3 + 100.0 x_c3_c1 - tauD_c1 - 7.5375 z_c3_dN + [ tauS_dN * z_c3_dN ] <= 89.365
  SyncA_c3_c2_c1: 5.0 o_3 + 100.0 x_c3_c2 - tauD_c2 - 10.635 z_c3_c1 + [ tauS_c1 * z_c3_c1 ] <= 96.25
  SyncA_c3_c2_c2: 5.0 o_3 + 100.0 x_c3_c2 - tauD_c2 - 3.75 z_c3_c2 + [ tauS_c2 * z_c3_c2 ] <= 96.25
  SyncA_c3_c2_c4: 5.0 o_3 + 100.0 x_c3_c2 - tauD_c2 - 6.62 z_c3_c4 + [ tauS_c4 * z_c3_c4 ] <= 96.25
  SyncA_c3_c2_c5: 5.0 o_3 + 100.0 x_c3_c2 - tauD_c2 - 8.035 z_c3_c5 + [ tauS_c5 * z_c3_c5 ] <= 96.25
  SyncA_c3_c2_dN: 5.0 o_3 + 100.0 x_c3_c2 - tauD_c2 - 7.5375 z_c3_dN + [ tauS_dN * z_c3_dN ] <= 96.25
  SyncA_c3_c4_c1: 5.0 o_3 + 100.0 x_c3_c4 - tauD_c4 - 10.635 z_c3_c1 + [ tauS_c1 * z_c3_c1 ] <= 93.38
  SyncA_c3_c4_c2: 5.0 o_3 + 100.0 x_c3_c4 - tauD_c4 - 3.75 z_c3_c2 + [ tauS_c2 * z_c3_c2 ] <= 93.38
  SyncA_c3_c4_c4: 5.0 o_3 + 100.0 x_c3_c4 - tauD_c4 - 6.62 z_c3_c4 + [ tauS_c4 * z_c3_c4 ] <= 93.38
  SyncA_c3_c4_c5: 5.0 o_3 + 100.0 x_c3_c4 - tauD_c4 - 8.035 z_c3_c5 + [ tauS_c5 * z_c3_c5 ] <= 93.38
  SyncA_c3_c4_dN: 5.0 o_3 + 100.0 x_c3_c4 - tauD_c4 - 7.5375 z_c3_dN + [ tauS_dN * z_c3_dN ] <= 93.38
  SyncA_c3_c5_c1: 5.0 o_3 + 100.0 x_c3_c5 - tauD_c5 - 10.635 z_c3_c1 + [ tauS_c1 * z_c3_c1 ] <= 91.965
  SyncA_c3_c5_c2: 5.0 o_3 + 100.0 x_c3_c5 - tauD_c5 - 3.75 z_c3_c2 + [ tauS_c2 * z_c3_c2 ] <= 91.965
  SyncA_c3_c5_c4: 5.0 o_3 + 100.0 x_c3_c5 - tauD_c5 - 6.62 z_c3_c4 + [ tauS_c4 * z_c3_c4 ] <= 91.965
  SyncA_c3_c5_c5: 5.0 o_3 + 100.0 x_c3_c5 - tauD_c5 - 8.035 z_c3_c5 + [ tauS_c5 * z_c3_c5 ] <= 91.965
  SyncA_c3_c5_dN: 5.0 o_3 + 100.0 x_c3_c5 - tauD_c5 - 7.5375 z_c3_dN + [ tauS_dN * z_c3_dN ] <= 91.965
  SyncA_c3_dN_c1: 5.0 o_3 + 100.0 x_c3_dN - tauD_dN - 10.635 z_c3_c1 + [ tauS_c1 * z_c3_c1 ] <= 92.4625
  SyncA_c3_dN_c2: 5.0 o_3 + 100.0 x_c3_dN - tauD_dN - 3.75 z_c3_c2 + [ tauS_c2 * z_c3_c2 ] <= 92.4625
  SyncA_c3_dN_c4: 5.0 o_3 + 100.0 x_c3_dN - tauD_dN - 6.62 z_c3_c4 + [ tauS_c4 * z_c3_c4 ] <= 92.4625
  SyncA_c3_dN_c5: 5.0 o_3 + 100.0 x_c3_dN - tauD_dN - 8.035 z_c3_c5 + [ tauS_c5 * z_c3_c5 ] <= 92.4625
  SyncA_c3_dN_dN: 5.0 o_3 + 100.0 x_c3_dN - tauD_dN - 7.5375 z_c3_dN + [ tauS_dN * z_c3_dN ] <= 92.4625
  SyncA_c4_c1_c1: 4.0 o_4 + 100.0 x_c4_c1 - tauD_c1 - 4.855 z_c4_c1 + [ tauS_c1 * z_c4_c1 ] <= 95.145
  SyncA_c4_c1_c2: 4.0 o_4 + 100.0 x_c4_c1 - tauD_c1 - 4.95 z_c4_c2 + [ tauS_c2 * z_c4_c2 ] <= 95.145
  SyncA_c4_c1_c3: 4.0 o_4 + 100.0 x_c4_c1 - tauD_c1 - 6.62 z_c4_c3 + [ tauS_c3 * z_c4_c3 ] <= 95.145
  SyncA_c4_c1_c5: 4.0 o_4 + 100.0 x_c4_c1 - tauD_c1 - 2.5 z_c4_c5 + [ tauS_c5 * z_c4_c5 ] <= 95.145
  SyncA_c4_c1_dN: 4.0 o_4 + 100.0 x_c4_c1 - tauD_c1 - 1.1175 z_c4_dN + [ tauS_dN * z_c4_dN ] <= 95.145
  SyncA_c4_c2_c1: 4.0 o_4 + 100.0 x_c4_c2 - tauD_c2 - 4.855 z_c4_c1 + [ tauS_c1 * z_c4_c1 ] <= 95.05
  SyncA_c4_c2_c2: 4.0 o_4 + 100.0 x_c4_c2 - tauD_c2 - 4.95 z_c4_c2 + [ tauS_c2 * z_c4_c2 ] <= 95.05
  SyncA_c4_c2_c3: 4.0 o_4 + 100.0 x_c4_c2 - tauD_c2 - 6.62 z_c4_c3 + [ tauS_c3 * z_c4_c3 ] <= 95.05
  SyncA_c4_c2_c5: 4.0 o_4 + 100.0 x_c4_c2 - tauD_c2 - 2.5 z_c4_c5 + [ tauS_c5 * z_c4_c5 ] <= 95.05
  SyncA_c4_c2_dN: 4.0 o_4 + 100.0 x_c4_c2 - tauD_c2 - 1.1175 z_c4_dN + [ tauS_dN * z_c4_dN ] <= 95.05
  SyncA_c4_c3_c1: 4.0 o_4 + 100.0 x_c4_c3 - tauD_c3 - 4.855 z_c4_c1 + [ tauS_c1 * z_c4_c1 ] <= 93.38
  SyncA_c4_c3_c2: 4.0 o_4 + 100.0 x_c4_c3 - tauD_c3 - 4.95 z_c4_c2 + [ tauS_c2 * z_c4_c2 ] <= 93.38
  SyncA_c4_c3_c3: 4.0 o_4 + 100.0 x_c4_c3 - tauD_c3 - 6.62 z_c4_c3 + [ tauS_c3 * z_c4_c3 ] <= 93.38
  SyncA_c4_c3_c5: 4.0 o_4 + 100.0 x_c4_c3 - tauD_c3 - 2.5 z_c4_c5 + [ tauS_c5 * z_c4_c5 ] <= 93.38
  SyncA_c4_c3_dN: 4.0 o_4 + 100.0 x_c4_c3 - tauD_c3 - 1.1175 z_c4_dN + [ tauS_dN * z_c4_dN ] <= 93.38
  SyncA_c4_c5_c1: 4.0 o_4 + 100.0 x_c4_c5 - tauD_c5 - 4.855 z_c4_c1 + [ tauS_c1 * z_c4_c1 ] <= 97.5
  SyncA_c4_c5_c2: 4.0 o_4 + 100.0 x_c4_c5 - tauD_c5 - 4.95 z_c4_c2 + [ tauS_c2 * z_c4_c2 ] <= 97.5
  SyncA_c4_c5_c3: 4.0 o_4 + 100.0 x_c4_c5 - tauD_c5 - 6.62 z_c4_c3 + [ tauS_c3 * z_c4_c3 ] <= 97.5
  SyncA_c4_c5_c5: 4.0 o_4 + 100.0 x_c4_c5 - tauD_c5 - 2.5 z_c4_c5 + [ tauS_c5 * z_c4_c5 ] <= 97.5
  SyncA_c4_c5_dN: 4.0 o_4 + 100.0 x_c4_c5 - tauD_c5 - 1.1175 z_c4_dN + [ tauS_dN * z_c4_dN ] <= 97.5
  SyncA_c4_dN_c1: 4.0 o_4 + 100.0 x_c4_dN - tauD_dN - 4.855 z_c4_c1 + [ tauS_c1 * z_c4_c1 ] <= 98.8825
  SyncA_c4_dN_c2: 4.0 o_4 + 100.0 x_c4_dN - tauD_dN - 4.95 z_c4_c2 + [ tauS_c2 * z_c4_c2 ] <= 98.8825
  SyncA_c4_dN_c3: 4.0 o_4 + 100.0 x_c4_dN - tauD_dN - 6.62 z_c4_c3 + [ tauS_c3 * z_c4_c3 ] <= 98.8825
  SyncA_c4_dN_c5: 4.0 o_4 + 100.0 x_c4_dN - tauD_dN - 2.5 z_c4_c5 + [ tauS_c5 * z_c4_c5 ] <= 98.8825
  SyncA_c4_dN_dN: 4.0 o_4 + 100.0 x_c4_dN - tauD_dN - 1.1175 z_c4_dN + [ tauS_dN * z_c4_dN ] <= 98.8825
  SyncA_c5_c1_c1: 3.0 o_5 + 100.0 x_c5_c1 - tauD_c1 - 6.13 z_c5_c1 + [ tauS_c1 * z_c5_c1 ] <= 93.87
  SyncA_c5_c1_c2: 3.0 o_5 + 100.0 x_c5_c1 - tauD_c1 - 5.22 z_c5_c2 + [ tauS_c2 * z_c5_c2 ] <= 93.87
  SyncA_c5_c1_c3: 3.0 o_5 + 100.0 x_c5_c1 - tauD_c1 - 8.035 z_c5_c3 + [ tauS_c3 * z_c5_c3 ] <= 93.87
  SyncA_c5_c1_c4: 3.0 o_5 + 100.0 x_c5_c1 - tauD_c1 - 2.5 z_c5_c4 + [ tauS_c4 * z_c5_c4 ] <= 93.87
  SyncA_c5_c1_dN: 3.0 o_5 + 100.0 x_c5_c1 - tauD_c1 - 1.58 z_c5_dN + [ tauS_dN * z_c5_dN ] <= 93.87
  SyncA_c5_c2_c1: 3.0 o_5 + 100.0 x_c5_c2 - tauD_c2 - 6.13 z_c5_c1 + [ tauS_c1 * z_c5_c1 ] <= 94.78
  SyncA_c5_c2_c2: 3.0 o_5 + 100.0 x_c5_c2 - tauD_c2 - 5.22 z_c5_c2 + [ tauS_c2 * z_c5_c2 ] <= 94.78
  SyncA_c5_c2_c3: 3.0 o_5 + 100.0 x_c5_c2 - tauD_c2 - 8.035 z_c5_c3 + [ tauS_c3 * z_c5_c3 ] <= 94.78
  SyncA_c5_c2_c4: 3.0 o_5 + 100.0 x_c5_c2 - tauD_c2 - 2.5 z_c5_c4 + [ tauS_c4 * z_c5_c4 ] <= 94.78
  SyncA_c5_c2_dN: 3.0 o_5 + 100.0 x_c5_c2 - tauD_c2 - 1.58 z_c5_dN + [ tauS_dN * z_c5_dN ] <= 94.78
  SyncA_c5_c3_c1: 3.0 o_5 + 100.0 x_c5_c3 - tauD_c3 - 6.13 z_c5_c1 + [ tauS_c1 * z_c5_c1 ] <= 91.965
  SyncA_c5_c3_c2: 3.0 o_5 + 100.0 x_c5_c3 - tauD_c3 - 5.22 z_c5_c2 + [ tauS_c2 * z_c5_c2 ] <= 91.965
  SyncA_c5_c3_c3: 3.0 o_5 + 100.0 x_c5_c3 - tauD_c3 - 8.035 z_c5_c3 + [ tauS_c3 * z_c5_c3 ] <= 91.965
  SyncA_c5_c3_c4: 3.0 o_5 + 100.0 x_c5_c3 - tauD_c3 - 2.5 z_c5_c4 + [ tauS_c4 * z_c5_c4 ] <= 91.965
  SyncA_c5_c3_dN: 3.0 o_5 + 100.0 x_c5_c3 - tauD_c3 - 1.58 z_c5_dN + [ tauS_dN * z_c5_dN ] <= 91.965
  SyncA_c5_c4_c1: 3.0 o_5 + 100.0 x_c5_c4 - tauD_c4 - 6.13 z_c5_c1 + [ tauS_c1 * z_c5_c1 ] <= 97.5
  SyncA_c5_c4_c2: 3.0 o_5 + 100.0 x_c5_c4 - tauD_c4 - 5.22 z_c5_c2 + [ tauS_c2 * z_c5_c2 ] <= 97.5
  SyncA_c5_c4_c3: 3.0 o_5 + 100.0 x_c5_c4 - tauD_c4 - 8.035 z_c5_c3 + [ tauS_c3 * z_c5_c3 ] <= 97.5
  SyncA_c5_c4_c4: 3.0 o_5 + 100.0 x_c5_c4 - tauD_c4 - 2.5 z_c5_c4 + [ tauS_c4 * z_c5_c4 ] <= 97.5
  SyncA_c5_c4_dN: 3.0 o_5 + 100.0 x_c5_c4 - tauD_c4 - 1.58 z_c5_dN + [ tauS_dN * z_c5_dN ] <= 97.5
  SyncA_c5_dN_c1: 3.0 o_5 + 100.0 x_c5_dN - tauD_dN - 6.13 z_c5_c1 + [ tauS_c1 * z_c5_c1 ] <= 98.42
  SyncA_c5_dN_c2: 3.0 o_5 + 100.0 x_c5_dN - tauD_dN - 5.22 z_c5_c2 + [ tauS_c2 * z_c5_c2 ] <= 98.42
  SyncA_c5_dN_c3: 3.0 o_5 + 100.0 x_c5_dN - tauD_dN - 8.035 z_c5_c3 + [ tauS_c3 * z_c5_c3 ] <= 98.42
  SyncA_c5_dN_c4: 3.0 o_5 + 100.0 x_c5_dN - tauD_dN - 2.5 z_c5_c4 + [ tauS_c4 * z_c5_c4 ] <= 98.42
  SyncA_c5_dN_dN: 3.0 o_5 + 100.0 x_c5_dN - tauD_dN - 1.58 z_c5_dN + [ tauS_dN * z_c5_dN ] <= 98.42
  SVFirst_c1_c2: tauS_c2 - tauD_c1 + 8.0 o_1 - 100.0 z_c1_c2 >= -74.2375
  SVFirst_c1_c3: tauS_c3 - tauD_c1 + 8.0 o_1 - 100.0 z_c1_c3 >= -73.36500000000001
  SVFirst_c1_c4: tauS_c4 - tauD_c1 + 8.0 o_1 - 100.0 z_c1_c4 >= -79.145
  SVFirst_c1_c5: tauS_c5 - tauD_c1 + 8.0 o_1 - 100.0 z_c1_c5 >= -77.87
  SVFirst_c1_dN:  tauS_dN - tauD_c1 + 8.0 o_1 - 100.0 z_c1_dN >= -79.1725
  SVFirst_c2_c1: tauS_c1 - tauD_c2 + 3.0 o_2 - 100.0 z_c2_c1 >= -79.2375
  SVFirst_c2_c3: tauS_c3 - tauD_c2 + 3.0 o_2 - 100.0 z_c2_c3 >= -85.25
  SVFirst_c2_c4: tauS_c4 - tauD_c2 + 3.0 o_2 - 100.0 z_c2_c4 >= -84.05
  SVFirst_c2_c5: tauS_c5 - tauD_c2 + 3.0 o_2 - 100.0 z_c2_c5 >= -83.78
  SVFirst_c2_dN:  tauS_dN - tauD_c2 + 3.0 o_2 - 100.0 z_c2_dN >= -83.5925
  SVFirst_c3_c1: tauS_c1 - tauD_c3 + 5.0 o_3 - 100.0 z_c3_c1 >= -76.36500000000001
  SVFirst_c3_c2: tauS_c2 - tauD_c3 + 5.0 o_3 - 100.0 z_c3_c2 >= -83.25
  SVFirst_c3_c4: tauS_c4 - tauD_c3 + 5.0 o_3 - 100.0 z_c3_c4 >= -80.38
  SVFirst_c3_c5: tauS_c5 - tauD_c3 + 5.0 o_3 - 100.0 z_c3_c5 >= -78.965
  SVFirst_c3_dN:  tauS_dN - tauD_c3 + 5.0 o_3 - 100.0 z_c3_dN >= -79.4625
  SVFirst_c4_c1: tauS_c1 - tauD_c4 + 4.0 o_4 - 100.0 z_c4_c1 >= -83.145
  SVFirst_c4_c2: tauS_c2 - tauD_c4 + 4.0 o_4 - 100.0 z_c4_c2 >= -83.05
  SVFirst_c4_c3: tauS_c3 - tauD_c4 + 4.0 o_4 - 100.0 z_c4_c3 >= -81.38
  SVFirst_c4_c5: tauS_c5 - tauD_c4 + 4.0 o_4 - 100.0 z_c4_c5 >= -85.5
  SVFirst_c4_dN:  tauS_dN - tauD_c4 + 4.0 o_4 - 100.0 z_c4_dN >= -86.8825
  SVFirst_c5_c1: tauS_c1 - tauD_c5 + 3.0 o_5 - 100.0 z_c5_c1 >= -82.87
  SVFirst_c5_c2: tauS_c2 - tauD_c5 + 3.0 o_5 - 100.0 z_c5_c2 >= -83.78
  SVFirst_c5_c3: tauS_c3 - tauD_c5 + 3.0 o_5 - 100.0 z_c5_c3 >= -80.965
  SVFirst_c5_c4: tauS_c4 - tauD_c5 + 3.0 o_5 - 100.0 z_c5_c4 >= -86.5
  SVFirst_c5_dN:  tauS_dN - tauD_c5 + 3.0 o_5 - 100.0 z_c5_dN >= -87.42
  Precedence_Swap_c1:  p_1 - z_d0_c1 - z_c2_c1 - z_c3_c1 - z_c4_c1 - z_c5_c1 = 0
  Precedence_Swap_c2:  p_2 - z_d0_c2 - z_c1_c2 - z_c3_c2 - z_c4_c2 - z_c5_c2 = 0
  Precedence_Swap_c3:  p_3 - z_d0_c3 - z_c1_c3 - z_c2_c3 - z_c4_c3 - z_c5_c3 = 0
  Precedence_Swap_c4:  p_4 - z_d0_c4 - z_c1_c4 - z_c2_c4 - z_c3_c4 - z_c5_c4 = 0
  Precedence_Swap_c5:  p_5 - z_d0_c5 - z_c1_c5 - z_c2_c5 - z_c3_c5 - z_c4_c5 = 0
  Order_c1:  o_1 - p_1 <= 0
  Order_c2:  o_2 - p_2 <= 0
  Order_c3:  o_3 - p_3 <= 0
  Order_c4:  o_4 - p_4 <= 0
  Order_c5:  o_5 - p_5 <= 0
  WorkingTimeS_c1:  tauS_c1 <= 87.1725
  WorkingTimeS_c2:  tauS_c2 <= 86.5925
  WorkingTimeS_c3:  tauS_c3 <= 84.4625
  WorkingTimeS_c4:  tauS_c4 <= 90.8825
  WorkingTimeS_c5:  tauS_c5 <= 90.42
  FreightDV_c1_c2:  k_c2 - kDash_c1 - 10.0 p_1 + 10.0 x_c1_c2 + [ kDash_c1 * p_1 - kDash_c1 * o_1 + 10.0 p_1 * o_1 ] <= 10.0
  FreightDV_c1_c3:  k_c3 - kDash_c1 - 10.0 p_1 + 10.0 x_c1_c3 + [ kDash_c1 * p_1 - kDash_c1 * o_1 + 10.0 p_1 * o_1 ] <= 10.0
  FreightDV_c1_c4:  k_c4 - kDash_c1 - 10.0 p_1 + 10.0 x_c1_c4 + [ kDash_c1 * p_1 - kDash_c1 * o_1 + 10.0 p_1 * o_1 ] <= 10.0
  FreightDV_c1_c5:  k_c5 - kDash_c1 - 10.0 p_1 + 10.0 x_c1_c5 + [ kDash_c1 * p_1 - kDash_c1 * o_1 + 10.0 p_1 * o_1 ] <= 10.0
  FreightDV_c1_dN:  k_dN - kDash_c1 - 10.0 p_1 + 10.0 x_c1_dN + [ kDash_c1 * p_1 - kDash_c1 * o_1 + 10.0 p_1 * o_1 ] <= 10.0
  FreightDV_c1:  kDash_c1 - k_c1 - 10.0 o_1 + [ k_c1 * o_1 ] <= -3.0
  FreightDV_c2_c1:  k_c1 - kDash_c2 - 10.0 p_2 + 10.0 x_c2_c1 + [ kDash_c2 * p_2 - kDash_c2 * o_2 + 10.0 p_2 * o_2 ] <= 10.0
  FreightDV_c2_c3:  k_c3 - kDash_c2 - 10.0 p_2 + 10.0 x_c2_c3 + [ kDash_c2 * p_2 - kDash_c2 * o_2 + 10.0 p_2 * o_2 ] <= 10.0
  FreightDV_c2_c4:  k_c4 - kDash_c2 - 10.0 p_2 + 10.0 x_c2_c4 + [ kDash_c2 * p_2 - kDash_c2 * o_2 + 10.0 p_2 * o_2 ] <= 10.0
  FreightDV_c2_c5:  k_c5 - kDash_c2 - 10.0 p_2 + 10.0 x_c2_c5 + [ kDash_c2 * p_2 - kDash_c2 * o_2 + 10.0 p_2 * o_2 ] <= 10.0
  FreightDV_c2_dN:  k_dN - kDash_c2 - 10.0 p_2 + 10.0 x_c2_dN + [ kDash_c2 * p_2 - kDash_c2 * o_2 + 10.0 p_2 * o_2 ] <= 10.0
  FreightDV_c2:  kDash_c2 - k_c2 - 10.0 o_2 + [ k_c2 * o_2 ] <= -4.0
  FreightDV_c3_c1:  k_c1 - kDash_c3 - 10.0 p_3 + 10.0 x_c3_c1 + [ kDash_c3 * p_3 - kDash_c3 * o_3 + 10.0 p_3 * o_3 ] <= 10.0
  FreightDV_c3_c2:  k_c2 - kDash_c3 - 10.0 p_3 + 10.0 x_c3_c2 + [ kDash_c3 * p_3 - kDash_c3 * o_3 + 10.0 p_3 * o_3 ] <= 10.0
  FreightDV_c3_c4:  k_c4 - kDash_c3 - 10.0 p_3 + 10.0 x_c3_c4 + [ kDash_c3 * p_3 - kDash_c3 * o_3 + 10.0 p_3 * o_3 ] <= 10.0
  FreightDV_c3_c5:  k_c5 - kDash_c3 - 10.0 p_3 + 10.0 x_c3_c5 + [ kDash_c3 * p_3 - kDash_c3 * o_3 + 10.0 p_3 * o_3 ] <= 10.0
  FreightDV_c3_dN:  k_dN - kDash_c3 - 10.0 p_3 + 10.0 x_c3_dN + [ kDash_c3 * p_3 - kDash_c3 * o_3 + 10.0 p_3 * o_3 ] <= 10.0
  FreightDV_c3:  kDash_c3 - k_c3 - 10.0 o_3 + [ k_c3 * o_3 ] <= -5.0
  FreightDV_c4_c1:  k_c1 - kDash_c4 - 10.0 p_4 + 10.0 x_c4_c1 + [ kDash_c4 * p_4 - kDash_c4 * o_4 + 10.0 p_4 * o_4 ] <= 10.0
  FreightDV_c4_c2:  k_c2 - kDash_c4 - 10.0 p_4 + 10.0 x_c4_c2 + [ kDash_c4 * p_4 - kDash_c4 * o_4 + 10.0 p_4 * o_4 ] <= 10.0
  FreightDV_c4_c3:  k_c3 - kDash_c4 - 10.0 p_4 + 10.0 x_c4_c3 + [ kDash_c4 * p_4 - kDash_c4 * o_4 + 10.0 p_4 * o_4 ] <= 10.0
  FreightDV_c4_c5:  k_c5 - kDash_c4 - 10.0 p_4 + 10.0 x_c4_c5 + [ kDash_c4 * p_4 - kDash_c4 * o_4 + 10.0 p_4 * o_4 ] <= 10.0
  FreightDV_c4_dN:  k_dN - kDash_c4 - 10.0 p_4 + 10.0 x_c4_dN + [ kDash_c4 * p_4 - kDash_c4 * o_4 + 10.0 p_4 * o_4 ] <= 10.0
  FreightDV_c4:  kDash_c4 - k_c4 - 10.0 o_4 + [ k_c4 * o_4 ] <= -6.0
  FreightDV_c5_c1:  k_c1 - kDash_c5 - 10.0 p_5 + 10.0 x_c5_c1 + [ kDash_c5 * p_5 - kDash_c5 * o_5 + 10.0 p_5 * o_5 ] <= 10.0
  FreightDV_c5_c2:  k_c2 - kDash_c5 - 10.0 p_5 + 10.0 x_c5_c2 + [ kDash_c5 * p_5 - kDash_c5 * o_5 + 10.0 p_5 * o_5 ] <= 10.0
  FreightDV_c5_c3:  k_c3 - kDash_c5 - 10.0 p_5 + 10.0 x_c5_c3 + [ kDash_c5 * p_5 - kDash_c5 * o_5 + 10.0 p_5 * o_5 ] <= 10.0
  FreightDV_c5_c4:  k_c4 - kDash_c5 - 10.0 p_5 + 10.0 x_c5_c4 + [ kDash_c5 * p_5 - kDash_c5 * o_5 + 10.0 p_5 * o_5 ] <= 10.0
  FreightDV_c5_dN:  k_dN - kDash_c5 - 10.0 p_5 + 10.0 x_c5_dN + [ kDash_c5 * p_5 - kDash_c5 * o_5 + 10.0 p_5 * o_5 ] <= 10.0
  FreightDV_c5:  kDash_c5 - k_c5 - 10.0 o_5 + [ k_c5 * o_5 ] <= -3.0
  FreightSV_c1_c2:  pi_c2 - pi_c1 - kDash_c1 + 20.0 z_c1_c2 + [ kDash_c1 * o_1 - k_c1 * o_1 ] <= 10.0
  FreightSV_c1_c3:  pi_c3 - pi_c1 - kDash_c1 + 20.0 z_c1_c3 + [ kDash_c1 * o_1 - k_c1 * o_1 ] <= 10.0
  FreightSV_c1_c4:  pi_c4 - pi_c1 - kDash_c1 + 20.0 z_c1_c4 + [ kDash_c1 * o_1 - k_c1 * o_1 ] <= 10.0
  FreightSV_c1_c5:  pi_c5 - pi_c1 - kDash_c1 + 20.0 z_c1_c5 + [ kDash_c1 * o_1 - k_c1 * o_1 ] <= 10.0
  FreightSV_c1_dN:  pi_dN - pi_c1 - kDash_c1 + 20.0 z_c1_dN + [ kDash_c1 * o_1 - k_c1 * o_1 ] <= 10.0
  FreightSV_c2_c1:  pi_c1 - pi_c2 - kDash_c2 + 20.0 z_c2_c1 + [ kDash_c2 * o_2 - k_c2 * o_2 ] <= 10.0
  FreightSV_c2_c3:  pi_c3 - pi_c2 - kDash_c2 + 20.0 z_c2_c3 + [ kDash_c2 * o_2 - k_c2 * o_2 ] <= 10.0
  FreightSV_c2_c4:  pi_c4 - pi_c2 - kDash_c2 + 20.0 z_c2_c4 + [ kDash_c2 * o_2 - k_c2 * o_2 ] <= 10.0
  FreightSV_c2_c5:  pi_c5 - pi_c2 - kDash_c2 + 20.0 z_c2_c5 + [ kDash_c2 * o_2 - k_c2 * o_2 ] <= 10.0
  FreightSV_c2_dN:  pi_dN - pi_c2 - kDash_c2 + 20.0 z_c2_dN + [ kDash_c2 * o_2 - k_c2 * o_2 ] <= 10.0
  FreightSV_c3_c1:  pi_c1 - pi_c3 - kDash_c3 + 20.0 z_c3_c1 + [ kDash_c3 * o_3 - k_c3 * o_3 ] <= 10.0
  FreightSV_c3_c2:  pi_c2 - pi_c3 - kDash_c3 + 20.0 z_c3_c2 + [ kDash_c3 * o_3 - k_c3 * o_3 ] <= 10.0
  FreightSV_c3_c4:  pi_c4 - pi_c3 - kDash_c3 + 20.0 z_c3_c4 + [ kDash_c3 * o_3 - k_c3 * o_3 ] <= 10.0
  FreightSV_c3_c5:  pi_c5 - pi_c3 - kDash_c3 + 20.0 z_c3_c5 + [ kDash_c3 * o_3 - k_c3 * o_3 ] <= 10.0
  FreightSV_c3_dN:  pi_dN - pi_c3 - kDash_c3 + 20.0 z_c3_dN + [ kDash_c3 * o_3 - k_c3 * o_3 ] <= 10.0
  FreightSV_c4_c1:  pi_c1 - pi_c4 - kDash_c4 + 20.0 z_c4_c1 + [ kDash_c4 * o_4 - k_c4 * o_4 ] <= 10.0
  FreightSV_c4_c2:  pi_c2 - pi_c4 - kDash_c4 + 20.0 z_c4_c2 + [ kDash_c4 * o_4 - k_c4 * o_4 ] <= 10.0
  FreightSV_c4_c3:  pi_c3 - pi_c4 - kDash_c4 + 20.0 z_c4_c3 + [ kDash_c4 * o_4 - k_c4 * o_4 ] <= 10.0
  FreightSV_c4_c5:  pi_c5 - pi_c4 - kDash_c4 + 20.0 z_c4_c5 + [ kDash_c4 * o_4 - k_c4 * o_4 ] <= 10.0
  FreightSV_c4_dN:  pi_dN - pi_c4 - kDash_c4 + 20.0 z_c4_dN + [ kDash_c4 * o_4 - k_c4 * o_4 ] <= 10.0
  FreightSV_c5_c1:  pi_c1 - pi_c5 - kDash_c5 + 20.0 z_c5_c1 + [ kDash_c5 * o_5 - k_c5 * o_5 ] <= 10.0
  FreightSV_c5_c2:  pi_c2 - pi_c5 - kDash_c5 + 20.0 z_c5_c2 + [ kDash_c5 * o_5 - k_c5 * o_5 ] <= 10.0
  FreightSV_c5_c3:  pi_c3 - pi_c5 - kDash_c5 + 20.0 z_c5_c3 + [ kDash_c5 * o_5 - k_c5 * o_5 ] <= 10.0
  FreightSV_c5_c4:  pi_c4 - pi_c5 - kDash_c5 + 20.0 z_c5_c4 + [ kDash_c5 * o_5 - k_c5 * o_5 ] <= 10.0
  FreightSV_c5_dN:  pi_dN - pi_c5 - kDash_c5 + 20.0 z_c5_dN + [ kDash_c5 * o_5 - k_c5 * o_5 ] <= 10.0
  FuelDV_d0_c1:  phi_c1 - phi_d0 + 13.2918 x_d0_c1 <= 12.0
  FuelDV_d0_c2:  phi_c2 - phi_d0 + 13.447 x_d0_c2 <= 12.0
  FuelDV_d0_c3:  phi_c3 - phi_d0 + 14.017 x_d0_c3 <= 12.0
  FuelDV_d0_c4:  phi_c4 - phi_d0 + 12.299 x_d0_c4 <= 12.0
  FuelDV_d0_c5:  phi_c5 - phi_d0 + 12.4228 x_d0_c5 <= 12.0
  FuelDV_c1_c2:  phi_c2 - phi_c1 + 14.612400000000001 x_c1_c2 <= 12.0
  FuelDV_c1_c3:  phi_c3 - phi_c1 + 14.8459 x_c1_c3 <= 12.0
  FuelDV_c1_c4:  phi_c4 - phi_c1 + 13.299199999999999 x_c1_c4 <= 12.0
  FuelDV_c1_c5:  phi_c5 - phi_c1 + 13.6404 x_c1_c5 <= 12.0
  FuelDV_c1_dN:  phi_dN - phi_c1 + 13.2918 x_c1_dN <= 12.0
  FuelDV_c2_c1:  phi_c1 - phi_c2 + 14.612400000000001 x_c2_c1 <= 12.0
  FuelDV_c2_c3:  phi_c3 - phi_c2 + 13.0035 x_c2_c3 <= 12.0
  FuelDV_c2_c4:  phi_c4 - phi_c2 + 13.3246 x_c2_c4 <= 12.0
  FuelDV_c2_c5:  phi_c5 - phi_c2 + 13.3969 x_c2_c5 <= 12.0
  FuelDV_c2_dN:  phi_dN - phi_c2 + 13.447 x_c2_dN <= 12.0
  FuelDV_c3_c1:  phi_c1 - phi_c3 + 14.8459 x_c3_c1 <= 12.0
  FuelDV_c3_c2:  phi_c2 - phi_c3 + 13.0035 x_c3_c2 <= 12.0
  FuelDV_c3_c4:  phi_c4 - phi_c3 + 13.7715 x_c3_c4 <= 12.0
  FuelDV_c3_c5:  phi_c5 - phi_c3 + 14.1502 x_c3_c5 <= 12.0
  FuelDV_c3_dN:  phi_dN - phi_c3 + 14.017 x_c3_dN <= 12.0
  FuelDV_c4_c1:  phi_c1 - phi_c4 + 13.299199999999999 x_c4_c1 <= 12.0
  FuelDV_c4_c2:  phi_c2 - phi_c4 + 13.3246 x_c4_c2 <= 12.0
  FuelDV_c4_c3:  phi_c3 - phi_c4 + 13.7715 x_c4_c3 <= 12.0
  FuelDV_c4_c5:  phi_c5 - phi_c4 + 12.669 x_c4_c5 <= 12.0
  FuelDV_c4_dN:  phi_dN - phi_c4 + 12.299 x_c4_dN <= 12.0
  FuelDV_c5_c1:  phi_c1 - phi_c5 + 13.6404 x_c5_c1 <= 12.0
  FuelDV_c5_c2:  phi_c2 - phi_c5 + 13.3969 x_c5_c2 <= 12.0
  FuelDV_c5_c3:  phi_c3 - phi_c5 + 14.1502 x_c5_c3 <= 12.0
  FuelDV_c5_c4:  phi_c4 - phi_c5 + 12.669 x_c5_c4 <= 12.0
  FuelDV_c5_dN:  phi_dN - phi_c5 + 12.4228 x_c5_dN <= 12.0
  WorkingTimeD_c1:  tauD_c1 + 8.0 p_1 <= 87.1725
  WorkingTimeD_c2:  tauD_c2 + 8.0 p_2 <= 91.5925
  WorkingTimeD_c3:  tauD_c3 + 8.0 p_3 <= 87.4625
  WorkingTimeD_c4:  tauD_c4 + 8.0 p_4 <= 94.8825
  WorkingTimeD_c5:  tauD_c5 + 8.0 p_5 <= 95.42
Bounds
0 <= kDash_c1 <= 10.0
0 <= kDash_c2 <= 10.0
0 <= kDash_c3 <= 10.0
0 <= kDash_c4 <= 10.0
0 <= kDash_c5 <= 10.0
0 <= kDash_dN <= 10.0
0 <= k_c1 <= 10.0
0 <= k_c2 <= 10.0
0 <= k_c3 <= 10.0
0 <= k_c4 <= 10.0
0 <= k_c5 <= 10.0
0 <= k_dN <= 10.0
0 <= phi_c1 <= 12.0
0 <= phi_c2 <= 12.0
0 <= phi_c3 <= 12.0
0 <= phi_c4 <= 12.0
0 <= phi_c5 <= 12.0
0 <= phi_d0 <= 12.0
0 <= phi_dN <= 12.0
0 <= pi_c1 <= 50.0
0 <= pi_c2 <= 50.0
0 <= pi_c3 <= 50.0
0 <= pi_c4 <= 50.0
0 <= pi_c5 <= 50.0
0 <= pi_dN <= 50.0
0 <= tauD_c1 <= 100.0
0 <= tauD_c2 <= 100.0
0 <= tauD_c3 <= 100.0
0 <= tauD_c4 <= 100.0
0 <= tauD_c5 <= 100.0
0 <= tauD_d0 <= 100.0
0 <= tauD_dN <= 100.0
0 <= tauS_c1 <= 100.0
0 <= tauS_c2 <= 100.0
0 <= tauS_c3 <= 100.0
0 <= tauS_c4 <= 100.0
0 <= tauS_c5 <= 100.0
0 <= tauS_d0 <= 100.0
0 <= tauS_dN <= 100.0
Generals
  kDash_c1
  kDash_c2
  kDash_c3
  kDash_c4
  kDash_c5
  kDash_dN
  k_c1
  k_c2
  k_c3
  k_c4
  k_c5
  k_dN
  phi_c1
  phi_c2
  phi_c3
  phi_c4
  phi_c5
  phi_d0
  phi_dN
  pi_c1
  pi_c2
  pi_c3
  pi_c4
  pi_c5
  pi_dN
  tauD_c1
  tauD_c2
  tauD_c3
  tauD_c4
  tauD_c5
  tauD_d0
  tauD_dN
  tauS_c1
  tauS_c2
  tauS_c3
  tauS_c4
  tauS_c5
  tauS_d0
  tauS_dN
Binary
  o_1
  o_2
  o_3
  o_4
  o_5
  p_1
  p_2
  p_3
  p_4
  p_5
  x_c1_c2
  x_c1_c3
  x_c1_c4
  x_c1_c5
  x_c1_dN
  x_c2_c1
  x_c2_c3
  x_c2_c4
  x_c2_c5
  x_c2_dN
  x_c3_c1
  x_c3_c2
  x_c3_c4
  x_c3_c5
  x_c3_dN
  x_c4_c1
  x_c4_c2
  x_c4_c3
  x_c4_c5
  x_c4_dN
  x_c5_c1
  x_c5_c2
  x_c5_c3
  x_c5_c4
  x_c5_dN
  x_d0_c1
  x_d0_c2
  x_d0_c3
  x_d0_c4
  x_d0_c5
  z_c1_c2
  z_c1_c3
  z_c1_c4
  z_c1_c5
  z_c1_dN
  z_c2_c1
  z_c2_c3
  z_c2_c4
  z_c2_c5
  z_c2_dN
  z_c3_c1
  z_c3_c2
  z_c3_c4
  z_c3_c5
  z_c3_dN
  z_c4_c1
  z_c4_c2
  z_c4_c3
  z_c4_c5
  z_c4_dN
  z_c5_c1
  z_c5_c2
  z_c5_c3
  z_c5_c4
  z_c5_dN
  z_d0_c1
  z_d0_c2
  z_d0_c3
  z_d0_c4
  z_d0_c5
End
