VRPTWMS/instances/mip/toDelete/freight_old/5/N5-C_DV10-C_SV50_F12_1_No_1.log

Gurobi 6.0.4 (win64) logging started 06/13/15 23:06:28

Warning: unknown variable 'kDash_dN' in bounds section
Read LP format model from file C:\MT\repository\VRPTWMS\instances\mip\freight\N5-C_DV10-C_SV50_F12_1_No_1.lp
Reading time = 0.00 seconds
(null): 161 rows, 110 columns, 603 nonzeros
Optimize a model with 161 rows, 110 columns and 603 nonzeros
Model has 180 quadratic constraints
WARNING: Only barrier available for SOCP models
Coefficient statistics:
  Matrix range    [1e+00, 1e+02]
  Objective range [4e+00, 1e+03]
  Bounds range    [1e+00, 1e+02]
  RHS range       [1e+00, 1e+02]
Presolve removed 28 rows and 13 columns
Presolve time: 0.02s
Presolved: 576 rows, 331 columns, 2439 nonzeros
Variable types: 209 continuous, 122 integer (88 binary)
Found heuristic solution: objective 5163.7600000
Optimize a model with 576 rows, 331 columns and 2439 nonzeros
Coefficient statistics:
  Matrix range    [1e+00, 1e+02]
  Objective range [4e+00, 1e+03]
  Bounds range    [1e+00, 1e+02]
  RHS range       [1e+00, 1e+02]
Presolve removed 34 rows and 20 columns
Presolved: 542 rows, 312 columns, 2288 nonzeros


Root relaxation: objective 5.758944e+02, 115 iterations, 0.01 seconds

    Nodes    |    Current Node    |     Objective Bounds      |     Work
 Expl Unexpl |  Obj  Depth IntInf | Incumbent    BestBd   Gap | It/Node Time

     0     0  575.89437    0   43 5163.76000  575.89437  88.8%     -    0s
H    0     0                    4161.8700000  575.89437  86.2%     -    0s
     0     0 1113.15257    0   34 4161.87000 1113.15257  73.3%     -    0s
H    0     0                    3152.3300000 1113.15257  64.7%     -    0s
     0     0 1115.24673    0   48 3152.33000 1115.24673  64.6%     -    0s
H    0     0                    3125.8700000 1115.24673  64.3%     -    0s
     0     0 1117.04033    0   51 3125.87000 1117.04033  64.3%     -    0s
     0     0 1117.05398    0   58 3125.87000 1117.05398  64.3%     -    0s
     0     0 1117.05398    0   54 3125.87000 1117.05398  64.3%     -    0s
     0     0 1117.59490    0   42 3125.87000 1117.59490  64.2%     -    0s
H    0     0                    3122.6200000 1117.59490  64.2%     -    0s
     0     0 1117.88664    0   46 3122.62000 1117.88664  64.2%     -    0s
     0     0 1117.88664    0   47 3122.62000 1117.88664  64.2%     -    0s
     0     0 1117.88664    0   46 3122.62000 1117.88664  64.2%     -    0s
     0     2 1117.88664    0   46 3122.62000 1117.88664  64.2%     -    0s
H   23    13                    2174.1900000 1124.61117  48.3%  26.0    0s
H  181    33                    2168.5100000 1165.86541  46.2%  24.0    0s
H  224    27                    2161.3100000 1183.50420  45.2%  25.3    0s
H  338     5                    2153.3100000 1410.31086  34.5%  22.3    0s

Cutting planes:
  Gomory: 2
  Cover: 22
  Implied bound: 54
  Clique: 25
  MIR: 36
  Flow cover: 1
  GUB cover: 2
  Mod-K: 1

Explored 396 nodes (8788 simplex iterations) in 0.30 seconds
Thread count was 2 (of 4 available processors)

Optimal solution found (tolerance 1.00e-04)
Best objective 2.153310000000e+03, best bound 2.153310000000e+03, gap 0.0%
k_c1	3.0
k_c2	4.0
k_c3	10.0
k_c4	0.0
k_c5	7.0
k_dN	-0.0
kDash_c1	0.0
kDash_c2	0.0
kDash_c3	5.0
kDash_c4	4.0
kDash_c5	4.0
kDash_dN	-0.0
o_1	0.0
o_2	-0.0
o_3	-0.0
o_4	1.0
o_5	0.0
p_1	0.0
p_2	1.0
p_3	0.0
p_4	1.0
p_5	0.0
phi_c1	2.0000000000000058
phi_c2	9.000000000000004
phi_c3	7.0000000000000036
phi_c4	5.0000000000000036
phi_c5	11.0
phi_d0	12.0
phi_dN	-0.0
pi_c1	43.0
pi_c2	50.0
pi_c3	50.0
pi_c4	40.0
pi_c5	43.0
pi_dN	-0.0
tauD_c1	87.0
tauD_c2	20.0
tauD_c3	57.0
tauD_c4	69.0
tauD_c5	5.0
tauD_d0	-0.0
tauD_dN	100.0
tauS_c1	87.0
tauS_c2	13.0
tauS_c3	14.0
tauS_c4	58.0
tauS_c5	10.0
tauS_d0	-0.0
tauS_dN	78.99999999999966
x_c1_dN	1.0
x_c2_c3	1.0
x_c3_c4	1.0
x_c4_c1	1.0
x_c5_c2	1.0
x_d0_c5	1.0
z_c2_c4	1.0
z_c4_dN	0.9999999999999964
z_d0_c2	1.0
